language ESSENCE' 1.0
$ minion Nodes: 1
$ minion TotalTime: 0.000401
$ Savile Row TotalTime: 0.144
letting pain_tuple4_tuple2 be [12]
letting pain_tuple1 be [2]
letting pain_tuple2 be [3]
letting pain_tuple3_tuple2 be [6]
letting pain_tuple3_tuple1 be [5]
letting pain_tuple4_tuple1_tuple2 be [11]
letting pain_tuple4_tuple1_tuple1 be [10]
